(declare-const DECISION_212_TAKEN_POST bool)
(declare-const DECISION_212_DECISION_212_Big_PRE bool)
(declare-const DECISION_212_DECISION_212_Big_POST bool)
(declare-const DECISION_212_DECISION_212_Normal_PRE bool)
(declare-const DECISION_212_DECISION_212_Normal_POST bool)
(declare-const DECISION_212_DECISION_213_Neapolitan_PRE bool)
(declare-const DECISION_212_DECISION_213_Neapolitan_POST bool)
(declare-const DECISION_212_DECISION_213_Sicilian_PRE bool)
(declare-const DECISION_212_DECISION_213_Sicilian_POST bool)
(declare-const DECISION_212_DECISION_214_PRE bool)
(declare-const DECISION_212_DECISION_214_POST bool)
(declare-const DECISION_212_DECISION_211_Ham_PRE bool)
(declare-const DECISION_212_DECISION_211_Ham_POST bool)
(declare-const DECISION_212_DECISION_211_Mozzarella_PRE bool)
(declare-const DECISION_212_DECISION_211_Mozzarella_POST bool)
(declare-const DECISION_212_DECISION_211_Salami_PRE bool)
(declare-const DECISION_212_DECISION_211_Salami_POST bool)
(declare-const DECISION_213_TAKEN_POST bool)
(declare-const DECISION_213_DECISION_212_Big_PRE bool)
(declare-const DECISION_213_DECISION_212_Big_POST bool)
(declare-const DECISION_213_DECISION_212_Normal_PRE bool)
(declare-const DECISION_213_DECISION_212_Normal_POST bool)
(declare-const DECISION_213_DECISION_213_Neapolitan_PRE bool)
(declare-const DECISION_213_DECISION_213_Neapolitan_POST bool)
(declare-const DECISION_213_DECISION_213_Sicilian_PRE bool)
(declare-const DECISION_213_DECISION_213_Sicilian_POST bool)
(declare-const DECISION_213_DECISION_214_PRE bool)
(declare-const DECISION_213_DECISION_214_POST bool)
(declare-const DECISION_213_DECISION_211_Ham_PRE bool)
(declare-const DECISION_213_DECISION_211_Ham_POST bool)
(declare-const DECISION_213_DECISION_211_Mozzarella_PRE bool)
(declare-const DECISION_213_DECISION_211_Mozzarella_POST bool)
(declare-const DECISION_213_DECISION_211_Salami_PRE bool)
(declare-const DECISION_213_DECISION_211_Salami_POST bool)
(declare-const DECISION_214_TAKEN_POST bool)
(declare-const DECISION_214_DECISION_212_Big_PRE bool)
(declare-const DECISION_214_DECISION_212_Big_POST bool)
(declare-const DECISION_214_DECISION_212_Normal_PRE bool)
(declare-const DECISION_214_DECISION_212_Normal_POST bool)
(declare-const DECISION_214_DECISION_213_Neapolitan_PRE bool)
(declare-const DECISION_214_DECISION_213_Neapolitan_POST bool)
(declare-const DECISION_214_DECISION_213_Sicilian_PRE bool)
(declare-const DECISION_214_DECISION_213_Sicilian_POST bool)
(declare-const DECISION_214_DECISION_214_PRE bool)
(declare-const DECISION_214_DECISION_214_POST bool)
(declare-const DECISION_214_DECISION_211_Ham_PRE bool)
(declare-const DECISION_214_DECISION_211_Ham_POST bool)
(declare-const DECISION_214_DECISION_211_Mozzarella_PRE bool)
(declare-const DECISION_214_DECISION_211_Mozzarella_POST bool)
(declare-const DECISION_214_DECISION_211_Salami_PRE bool)
(declare-const DECISION_214_DECISION_211_Salami_POST bool)
(declare-const DECISION_211_TAKEN_POST bool)
(declare-const DECISION_211_DECISION_212_Big_PRE bool)
(declare-const DECISION_211_DECISION_212_Big_POST bool)
(declare-const DECISION_211_DECISION_212_Normal_PRE bool)
(declare-const DECISION_211_DECISION_212_Normal_POST bool)
(declare-const DECISION_211_DECISION_213_Neapolitan_PRE bool)
(declare-const DECISION_211_DECISION_213_Neapolitan_POST bool)
(declare-const DECISION_211_DECISION_213_Sicilian_PRE bool)
(declare-const DECISION_211_DECISION_213_Sicilian_POST bool)
(declare-const DECISION_211_DECISION_214_PRE bool)
(declare-const DECISION_211_DECISION_214_POST bool)
(declare-const DECISION_211_DECISION_211_Ham_PRE bool)
(declare-const DECISION_211_DECISION_211_Ham_POST bool)
(declare-const DECISION_211_DECISION_211_Mozzarella_PRE bool)
(declare-const DECISION_211_DECISION_211_Mozzarella_POST bool)
(declare-const DECISION_211_DECISION_211_Salami_PRE bool)
(declare-const DECISION_211_DECISION_211_Salami_POST bool)
(declare-const END_DECISION_212_Big bool)
(declare-const END_DECISION_212_Normal bool)
(declare-const END_DECISION_213_Neapolitan bool)
(declare-const END_DECISION_213_Sicilian bool)
(declare-const END_DECISION_214 bool)
(declare-const END_DECISION_211_Ham bool)
(declare-const END_DECISION_211_Mozzarella bool)
(declare-const END_DECISION_211_Salami bool)
(assert
(and 
(= DECISION_211_TAKEN_POST true)
(and 
(= 
DECISION_211_DECISION_212_Big_PRE
DECISION_211_DECISION_212_Big_POST
)
(= 
DECISION_211_DECISION_212_Normal_PRE
DECISION_211_DECISION_212_Normal_POST
)
(= 
DECISION_211_DECISION_213_Neapolitan_PRE
DECISION_211_DECISION_213_Neapolitan_POST
)
(= 
DECISION_211_DECISION_213_Sicilian_PRE
DECISION_211_DECISION_213_Sicilian_POST
)
(= 
DECISION_211_DECISION_214_PRE
DECISION_211_DECISION_214_POST
)
(= 
DECISION_211_DECISION_211_Ham_PRE
DECISION_211_DECISION_211_Ham_POST
)
(= 
DECISION_211_DECISION_211_Mozzarella_PRE
DECISION_211_DECISION_211_Mozzarella_POST
)
(= 
DECISION_211_DECISION_211_Salami_PRE
DECISION_211_DECISION_211_Salami_POST
)
)
)
)
(assert (and 
(= DECISION_211_DECISION_212_Big_POST DECISION_212_DECISION_212_Big_PRE)
(= DECISION_211_DECISION_212_Normal_POST DECISION_212_DECISION_212_Normal_PRE)
(= DECISION_211_DECISION_213_Neapolitan_POST DECISION_212_DECISION_213_Neapolitan_PRE)
(= DECISION_211_DECISION_213_Sicilian_POST DECISION_212_DECISION_213_Sicilian_PRE)
(= DECISION_211_DECISION_214_POST DECISION_212_DECISION_214_PRE)
(= DECISION_211_DECISION_211_Ham_POST DECISION_212_DECISION_211_Ham_PRE)
(= DECISION_211_DECISION_211_Mozzarella_POST DECISION_212_DECISION_211_Mozzarella_PRE)
(= DECISION_211_DECISION_211_Salami_POST DECISION_212_DECISION_211_Salami_PRE)
))
(assert
(and 
(= DECISION_212_TAKEN_POST true)
(and 
(= 
DECISION_212_DECISION_212_Big_PRE
DECISION_212_DECISION_212_Big_POST
)
(= 
DECISION_212_DECISION_212_Normal_PRE
DECISION_212_DECISION_212_Normal_POST
)
(= 
DECISION_212_DECISION_213_Neapolitan_PRE
DECISION_212_DECISION_213_Neapolitan_POST
)
(= 
DECISION_212_DECISION_213_Sicilian_PRE
DECISION_212_DECISION_213_Sicilian_POST
)
(= 
DECISION_212_DECISION_214_PRE
DECISION_212_DECISION_214_POST
)
(= 
DECISION_212_DECISION_211_Ham_PRE
DECISION_212_DECISION_211_Ham_POST
)
(= 
DECISION_212_DECISION_211_Mozzarella_PRE
DECISION_212_DECISION_211_Mozzarella_POST
)
(= 
DECISION_212_DECISION_211_Salami_PRE
DECISION_212_DECISION_211_Salami_POST
)
)
)
)
(assert (and 
(= DECISION_212_DECISION_212_Big_POST DECISION_213_DECISION_212_Big_PRE)
(= DECISION_212_DECISION_212_Normal_POST DECISION_213_DECISION_212_Normal_PRE)
(= DECISION_212_DECISION_213_Neapolitan_POST DECISION_213_DECISION_213_Neapolitan_PRE)
(= DECISION_212_DECISION_213_Sicilian_POST DECISION_213_DECISION_213_Sicilian_PRE)
(= DECISION_212_DECISION_214_POST DECISION_213_DECISION_214_PRE)
(= DECISION_212_DECISION_211_Ham_POST DECISION_213_DECISION_211_Ham_PRE)
(= DECISION_212_DECISION_211_Mozzarella_POST DECISION_213_DECISION_211_Mozzarella_PRE)
(= DECISION_212_DECISION_211_Salami_POST DECISION_213_DECISION_211_Salami_PRE)
))
(assert
(and 
(= DECISION_213_TAKEN_POST true)
(and 
(= 
DECISION_213_DECISION_212_Big_PRE
DECISION_213_DECISION_212_Big_POST
)
(= 
DECISION_213_DECISION_212_Normal_PRE
DECISION_213_DECISION_212_Normal_POST
)
(= 
DECISION_213_DECISION_213_Neapolitan_PRE
DECISION_213_DECISION_213_Neapolitan_POST
)
(= 
DECISION_213_DECISION_213_Sicilian_PRE
DECISION_213_DECISION_213_Sicilian_POST
)
(= 
DECISION_213_DECISION_214_PRE
DECISION_213_DECISION_214_POST
)
(= 
DECISION_213_DECISION_211_Ham_PRE
DECISION_213_DECISION_211_Ham_POST
)
(= 
DECISION_213_DECISION_211_Mozzarella_PRE
DECISION_213_DECISION_211_Mozzarella_POST
)
(= 
DECISION_213_DECISION_211_Salami_PRE
DECISION_213_DECISION_211_Salami_POST
)
)
)
)
(assert (and 
(= DECISION_213_DECISION_212_Big_POST DECISION_214_DECISION_212_Big_PRE)
(= DECISION_213_DECISION_212_Normal_POST DECISION_214_DECISION_212_Normal_PRE)
(= DECISION_213_DECISION_213_Neapolitan_POST DECISION_214_DECISION_213_Neapolitan_PRE)
(= DECISION_213_DECISION_213_Sicilian_POST DECISION_214_DECISION_213_Sicilian_PRE)
(= DECISION_213_DECISION_214_POST DECISION_214_DECISION_214_PRE)
(= DECISION_213_DECISION_211_Ham_POST DECISION_214_DECISION_211_Ham_PRE)
(= DECISION_213_DECISION_211_Mozzarella_POST DECISION_214_DECISION_211_Mozzarella_PRE)
(= DECISION_213_DECISION_211_Salami_POST DECISION_214_DECISION_211_Salami_PRE)
))
(assert
(and
(= DECISION_214_TAKEN_POST true)
(ite 
(and
(= DECISION_214_TAKEN_POST true)
(= 
 DECISION_214_DECISION_214_PRE 
 true 
)
)
(and 
(and
(= DECISION_214_DECISION_212_Big_POST true)
(= DECISION_212_TAKEN_POST true)
)
(and 
(= 
DECISION_214_DECISION_212_Big_PRE
DECISION_214_DECISION_212_Big_POST
)
(= 
DECISION_214_DECISION_212_Normal_PRE
DECISION_214_DECISION_212_Normal_POST
)
(= 
DECISION_214_DECISION_213_Neapolitan_PRE
DECISION_214_DECISION_213_Neapolitan_POST
)
(= 
DECISION_214_DECISION_213_Sicilian_PRE
DECISION_214_DECISION_213_Sicilian_POST
)
(= 
DECISION_214_DECISION_214_PRE
DECISION_214_DECISION_214_POST
)
(= 
DECISION_214_DECISION_211_Ham_PRE
DECISION_214_DECISION_211_Ham_POST
)
(= 
DECISION_214_DECISION_211_Mozzarella_PRE
DECISION_214_DECISION_211_Mozzarella_POST
)
(= 
DECISION_214_DECISION_211_Salami_PRE
DECISION_214_DECISION_211_Salami_POST
)
)
)
(and 
(= 
DECISION_214_DECISION_212_Big_PRE
DECISION_214_DECISION_212_Big_POST
)
(= 
DECISION_214_DECISION_212_Normal_PRE
DECISION_214_DECISION_212_Normal_POST
)
(= 
DECISION_214_DECISION_213_Neapolitan_PRE
DECISION_214_DECISION_213_Neapolitan_POST
)
(= 
DECISION_214_DECISION_213_Sicilian_PRE
DECISION_214_DECISION_213_Sicilian_POST
)
(= 
DECISION_214_DECISION_214_PRE
DECISION_214_DECISION_214_POST
)
(= 
DECISION_214_DECISION_211_Ham_PRE
DECISION_214_DECISION_211_Ham_POST
)
(= 
DECISION_214_DECISION_211_Mozzarella_PRE
DECISION_214_DECISION_211_Mozzarella_POST
)
(= 
DECISION_214_DECISION_211_Salami_PRE
DECISION_214_DECISION_211_Salami_POST
)
)
)
)
)
(assert (and
(= DECISION_214_DECISION_212_Big_POST END_DECISION_212_Big)
(= DECISION_214_DECISION_212_Normal_POST END_DECISION_212_Normal)
(= DECISION_214_DECISION_213_Neapolitan_POST END_DECISION_213_Neapolitan)
(= DECISION_214_DECISION_213_Sicilian_POST END_DECISION_213_Sicilian)
(= DECISION_214_DECISION_214_POST END_DECISION_214)
(= DECISION_214_DECISION_211_Ham_POST END_DECISION_211_Ham)
(= DECISION_214_DECISION_211_Mozzarella_POST END_DECISION_211_Mozzarella)
(= DECISION_214_DECISION_211_Salami_POST END_DECISION_211_Salami)
))
(assert
(ite 
(= DECISION_212_TAKEN_POST true)
(and
(>= 
(+
(ite
(= DECISION_212_DECISION_212_Big_PRE true)
1
0
)
(ite
(= DECISION_212_DECISION_212_Normal_PRE true)
1
0
)
)
1
)
(<= 
(+
(ite
(= DECISION_212_DECISION_212_Big_PRE true)
1
0
)
(ite
(= DECISION_212_DECISION_212_Normal_PRE true)
1
0
)
)
1
)
)
(= true true)
)
)
(assert
(ite 
(= DECISION_213_TAKEN_POST true)
(and
(>= 
(+
(ite
(= DECISION_212_DECISION_213_Neapolitan_PRE true)
1
0
)
(ite
(= DECISION_212_DECISION_213_Sicilian_PRE true)
1
0
)
)
1
)
(<= 
(+
(ite
(= DECISION_212_DECISION_213_Neapolitan_PRE true)
1
0
)
(ite
(= DECISION_212_DECISION_213_Sicilian_PRE true)
1
0
)
)
1
)
)
(= true true)
)
)
(assert
(ite 
(= DECISION_211_TAKEN_POST true)
(and
(>= 
(+
(ite
(= DECISION_212_DECISION_211_Ham_PRE true)
1
0
)
(ite
(= DECISION_212_DECISION_211_Mozzarella_PRE true)
1
0
)
(ite
(= DECISION_212_DECISION_211_Salami_PRE true)
1
0
)
)
1
)
(<= 
(+
(ite
(= DECISION_212_DECISION_211_Ham_PRE true)
1
0
)
(ite
(= DECISION_212_DECISION_211_Mozzarella_PRE true)
1
0
)
(ite
(= DECISION_212_DECISION_211_Salami_PRE true)
1
0
)
)
3
)
)
(= true true)
)
)
(check-sat)
(exit)